
Gurobi 11.0.2 (win64) logging started Mon Aug 19 08:57:55 2024

Set parameter LogFile to value "D:\Documenti\Scuola\Laurea magistrale unibs\laurea-unibs-mkfsp\output\2024-08-19T06_36_50.601237\logs\instance03_bucket1.log"
Set parameter TimeLimit to value 350
Set parameter MIPGap to value 0
Gurobi Optimizer version 11.0.2 build v11.0.2rc0 (win64 - Windows 10.0 (19045.2))

CPU model: Intel(R) Core(TM) i5-4670 CPU @ 3.40GHz, instruction set [SSE2|AVX|AVX2]
Thread count: 4 physical cores, 4 logical processors, using up to 4 threads

Optimize a model with 1429 rows, 6905 columns and 73853 nonzeros
Model fingerprint: 0x7bc06618
Variable types: 0 continuous, 6905 integer (6850 binary)
Coefficient statistics:
  Matrix range     [1e+00, 8e+03]
  Objective range  [6e+02, 8e+03]
  Bounds range     [1e+00, 1e+00]
  RHS range        [1e+00, 3e+05]
Found heuristic solution: objective 300119.00000
Presolve removed 0 rows and 55 columns
Presolve time: 0.09s
Presolved: 1429 rows, 6850 columns, 73400 nonzeros
Variable types: 0 continuous, 6850 integer (6795 binary)

Root relaxation: objective 3.007780e+05, 743 iterations, 0.01 seconds (0.01 work units)

    Nodes    |    Current Node    |     Objective Bounds      |     Work
 Expl Unexpl |  Obj  Depth IntInf | Incumbent    BestBd   Gap | It/Node Time

H    0     0                    300778.00000 300778.000  0.00%     -    0s
     0     0 300778.000    0  322 300778.000 300778.000  0.00%     -    0s

Explored 1 nodes (743 simplex iterations) in 0.12 seconds (0.10 work units)
Thread count was 4 (of 4 available processors)

Solution count 2: 300778 300119 

Optimal solution found (tolerance 0.00e+00)
Best objective 3.007780000000e+05, best bound 3.007780000000e+05, gap 0.0000%
